c Sudoku solution
p cnf 729 0
179 0
192 0
239 0
281 0
356 0
365 0
349 0
437 0
452 0
555 0
583 0
594 0
622 0
572 0
644 0
689 0
698 0
677 0
725 0
761 0
828 0
867 0
547 0
893 0
397 0
921 0
871 0
491 0
651 0
141 0
936 0
995 0
799 0
845 0
746 0
886 0
485 0
476 0
275 0
373 0
296 0
324 0
388 0
184 0
414 0
163 0
666 0
443 0
429 0
526 0
468 0
569 0
116 0
135 0
127 0
223 0
218 0
158 0
257 0
264 0
242 0
615 0
633 0
511 0
538 0
312 0
331 0
819 0
832 0
734 0
782 0
987 0
778 0
974 0
717 0
913 0
753 0
854 0
948 0
962 0
959 0
